solving instance uflp nldep holmberg 41 sinabc2
Set parameter TokenServer to value "licences.gerad.lan"
Set parameter MIPGap to value 1e-06
Set parameter FuncPieceError to value 1e-06
Set parameter Threads to value 1
Set parameter FuncPieces to value -2
Set parameter TimeLimit to value 3600
Gurobi Optimizer version 12.0.2 build v12.0.2rc0 (linux64 - "AlmaLinux 9.6 (Sage Margay)")

CPU model: Intel(R) Xeon(R) Gold 6258R CPU @ 2.70GHz, instruction set [SSE2|AVX|AVX2|AVX512]
Thread count: 56 physical cores, 56 logical processors, using up to 1 threads

Non-default parameters:
TimeLimit  3600
MIPGap  1e-06
Threads  1
FuncPieces  -2
FuncPieceError  1e-06

Optimize a model with 1030 rows, 970 columns and 3680 nonzeros
Model fingerprint: 0xec04b710
Model has 20 function constraints treated as nonlinear
  10 POW, 10 SIN
Variable types: 960 continuous, 10 integer (10 binary)
Coefficient statistics:
  Matrix range     [4e-03, 4e+01]
  Objective range  [1e+00, 3e+02]
  Bounds range     [1e+00, 1e+10]
  RHS range        [1e+00, 1e+00]
Warning: Model contains large bounds
         Consider reformulating model or setting NumericFocus parameter
         to avoid numerical issues.
Presolve removed 920 rows and 40 columns
Presolve time: 0.00s
Presolved: 190 rows, 931 columns, 2000 nonzeros
Presolved model has 10 quadratic objective terms
Presolved model has 10 nonlinear constraint(s)

Solving non-convex MINLP

Variable types: 931 continuous, 0 integer (0 binary)
Found heuristic solution: objective 3308.7082334

Root relaxation: objective 3.111267e+03, 233 iterations, 0.00 seconds (0.00 work units)

    Nodes    |    Current Node    |     Objective Bounds      |     Work
 Expl Unexpl |  Obj  Depth IntInf | Incumbent    BestBd   Gap | It/Node Time

     0     0 3111.26703    0   10 3308.70823 3111.26703  5.97%     -    0s
     0     0 3111.26703    0   10 3308.70823 3111.26703  5.97%     -    0s
H    0     0                    3308.7082319 3111.26703  5.97%     -    0s
     0     2 3131.01445    0   10 3308.70823 3131.01445  5.37%     -    0s
*   29    11              15    3308.7082044 3255.70376  1.60%  12.2    0s

Explored 73 nodes (882 simplex iterations) in 0.13 seconds (0.07 work units)
Thread count was 1 (of 56 available processors)

Solution count 1: 3308.71 

Optimal solution found (tolerance 1.00e-06)
Best objective 3.308708204350e+03, best bound 3.308708204350e+03, gap 0.0000%

User-callback calls 525, time in user-callback 0.00 sec
reading holmberg data file ../../../../../instances/uflp/holmberg/p41
primal_bound = 3308.7082043503606, dual_bound = 3308.70820435036, gap = 1.3743954522449353e-14, time = 0.14
OPTIMAL LOCATIONS:
y[1] = 1.0
y[2] = 1.0
y[3] = 1.0
y[4] = 1.0
y[5] = 1.0
y[6] = 1.0
y[7] = 1.0
y[8] = 1.0
y[9] = 1.0
y[10] = 1.0
OPTIMAL WAREHOUSING:
f[1] = 141.0
f[2] = 87.0
f[3] = 111.0
f[4] = 94.0
f[5] = 118.0
f[6] = 119.0
f[7] = 151.0
f[8] = 106.0
f[9] = 110.0
f[10] = 262.0
OPTIMAL WAREHOUSING COSTS:
nlobj[1] = 23.63293423478638
nlobj[2] = 8.330582810037228
nlobj[3] = 18.911568297302225
nlobj[4] = 13.679324774419342
nlobj[5] = 23.777967646094524
nlobj[6] = 18.70956372763195
nlobj[7] = 31.603981797877367
nlobj[8] = 18.482164732029613
nlobj[9] = 13.08443953202366
nlobj[10] = 65.49567679815804
OPTIMAL ASSIGNMENTS:
x[1, 19] = 1.0
x[1, 32] = 1.0
x[1, 33] = 1.0
x[1, 34] = 1.0
x[1, 47] = 1.0
x[1, 61] = 1.0
x[1, 62] = 1.0
x[1, 65] = 1.0
x[1, 71] = 1.0
x[1, 74] = 1.0
x[2, 4] = 1.0
x[2, 22] = 1.0
x[2, 24] = 1.0
x[2, 51] = 1.0
x[2, 52] = 1.0
x[2, 63] = 1.0
x[3, 13] = 1.0
x[3, 15] = 1.0
x[3, 37] = 1.0
x[3, 41] = 1.0
x[3, 57] = 1.0
x[3, 78] = 1.0
x[3, 82] = 1.0
x[4, 7] = 1.0
x[4, 18] = 1.0
x[4, 35] = 1.0
x[4, 43] = 1.0
x[4, 44] = 1.0
x[4, 45] = 1.0
x[5, 3] = 1.0
x[5, 11] = 1.0
x[5, 23] = 1.0
x[5, 28] = 1.0
x[5, 50] = 1.0
x[5, 69] = 1.0
x[5, 70] = 1.0
x[5, 72] = 1.0
x[5, 73] = 1.0
x[6, 1] = 1.0
x[6, 26] = 1.0
x[6, 27] = 1.0
x[6, 30] = 1.0
x[6, 46] = 1.0
x[6, 48] = 1.0
x[6, 49] = 1.0
x[6, 64] = 1.0
x[6, 80] = 1.0
x[7, 2] = 1.0
x[7, 14] = 1.0
x[7, 20] = 1.0
x[7, 21] = 1.0
x[7, 25] = 1.0
x[7, 38] = 1.0
x[7, 39] = 1.0
x[7, 53] = 1.0
x[7, 54] = 1.0
x[7, 66] = 1.0
x[7, 67] = 1.0
x[7, 68] = 1.0
x[8, 5] = 1.0
x[8, 8] = 1.0
x[8, 16] = 1.0
x[8, 17] = 1.0
x[8, 42] = 1.0
x[8, 56] = 1.0
x[8, 75] = 1.0
x[8, 76] = 1.0
x[8, 81] = 1.0
x[9, 9] = 1.0
x[9, 10] = 1.0
x[9, 29] = 1.0
x[9, 31] = 1.0
x[9, 58] = 1.0
x[9, 59] = 1.0
x[9, 60] = 1.0
x[10, 6] = 1.0
x[10, 12] = 1.0
x[10, 36] = 1.0
x[10, 40] = 1.0
x[10, 55] = 1.0
x[10, 77] = 1.0
x[10, 79] = 1.0
x[10, 83] = 1.0
x[10, 84] = 1.0
x[10, 85] = 1.0
x[10, 86] = 1.0
x[10, 87] = 1.0
x[10, 88] = 1.0
x[10, 89] = 1.0
x[10, 90] = 1.0
fixed costs = 3877.0
assignment costs = 3073.0
warehousing costs = 235.7082043503603
total cost = 3308.70820435036
